p cnf 30 45
15 17 25 
19 -14 -20 
-26 -3 30 
29 18 -24 
-27 6 -30 
-2 27 26 
30 -9 -17 
29 -9 17 
-18 19 -12 
23 14 20 
23 15 12 
-2 -8 -15 
-30 -22 -16 
-7 16 -24 
7 -5 -16 
-19 -13 2 
11 -3 2 
30 -4 30 
-24 -16 5 
24 -5 26 
-23 -18 26 
-14 9 1 
-2 -12 -7 
-5 26 27 
-12 -13 18 
18 -17 -1 
-15 27 -28 
14 18 25 
16 6 -8 
29 -21 25 
1 8 9 
-20 -3 19 
-30 10 27 
-16 -12 22 
-12 -16 -27 
-10 -12 12 
6 -7 24 
23 -4 -23 
10 6 25 
1 -19 -28 
28 22 6 
-20 28 12 
14 6 -10 
11 13 18 
-25 7 -22 

